structural
morse    3
rCOe0    0   0   0   0   0   0   0   0   0   0   0   0   1          1.42020447
rOHe0    0   0   0   0   0   0   0   0   0   0   0   0   0          0.95631445
rCHe0    0   0   0   0   0   0   0   0   0   0   0   0   0          1.09061209
aHOCe0   0   0   0   0   0   0   0   0   0   0   0   0   0        108.10210467
aHCOe0   0   0   0   0   0   0   0   0   0   0   0   0   0        110.28974516
am1      0   0   0   0   0   0   0   0   0   0   0   0   1          2.27304878
am2      0   0   0   0   0   0   0   0   0   0   0   0   0          2.55392176
bm1      0   0   0   0   0   0   0   0   0   0   0   0   0          1.85744195
end

linear
f    0   0   0   0   0   0   0   0   0   0   0   0   1      0.000000000
f    2   0   0   0   0   0   0   0   0   0   0   0   1      1.000000000
f    3   0   0   0   0   0   0   0   0   0   0   0   1      0.000000000
f    4   0   0   0   0   0   0   0   0   0   0   0   1      0.000000000
f    5   0   0   0   0   0   0   0   0   0   0   0   1      0.000000000
f    6   0   0   0   0   0   0   0   0   0   0   0   1      0.000000000
f    7   0   0   0   0   0   0   0   0   0   0   0   1      0.000000000
f    8   0   0   0   0   0   0   0   0   0   0   0   1      0.000000000
end

grid
1.42077677 0.96013932 1.08924348 1.08924348 1.08924348 108.12930637 110.16192385 110.16192385 110.16192385  60.00000000 180.00000000 300.00000000 -115.609500093522     1
1.39577677 0.96013932 1.08924348 1.08924348 1.08924348 108.12930637 110.16192385 110.16192385 110.16192385  60.00000000 180.00000000 300.00000000 -115.609102931663     2
1.44577677 0.96013932 1.08924348 1.08924348 1.08924348 108.12930637 110.16192385 110.16192385 110.16192385  60.00000000 180.00000000 300.00000000 -115.609103976510     3
1.47077677 0.96013932 1.08924348 1.08924348 1.08924348 108.12930637 110.16192385 110.16192385 110.16192385  60.00000000 180.00000000 300.00000000 -115.608021232981     4
1.37077677 0.96013932 1.08924348 1.08924348 1.08924348 108.12930637 110.16192385 110.16192385 110.16192385  60.00000000 180.00000000 300.00000000 -115.607791673785     5
1.32077677 0.96013932 1.08924348 1.08924348 1.08924348 108.12930637 110.16192385 110.16192385 110.16192385  60.00000000 180.00000000 300.00000000 -115.601862762132     6
1.52077677 0.96013932 1.08924348 1.08924348 1.08924348 108.12930637 110.16192385 110.16192385 110.16192385  60.00000000 180.00000000 300.00000000 -115.604162134109     7
1.54577677 0.96013932 1.08924348 1.08924348 1.08924348 108.12930637 110.16192385 110.16192385 110.16192385  60.00000000 180.00000000 300.00000000 -115.601543016136     8
1.29577677 0.96013932 1.08924348 1.08924348 1.08924348 108.12930637 110.16192385 110.16192385 110.16192385  60.00000000 180.00000000 300.00000000 -115.596914695942     9
1.57077677 0.96013932 1.08924348 1.08924348 1.08924348 108.12930637 110.16192385 110.16192385 110.16192385  60.00000000 180.00000000 300.00000000 -115.598554191734    10
1.27077677 0.96013932 1.08924348 1.08924348 1.08924348 108.12930637 110.16192385 110.16192385 110.16192385  60.00000000 180.00000000 300.00000000 -115.590386623376    11
1.62077677 0.96013932 1.08924348 1.08924348 1.08924348 108.12930637 110.16192385 110.16192385 110.16192385  60.00000000 180.00000000 300.00000000 -115.591693381435    12
1.22077677 0.96013932 1.08924348 1.08924348 1.08924348 108.12930637 110.16192385 110.16192385 110.16192385  60.00000000 180.00000000 300.00000000 -115.571655377377    13
1.72077677 0.96013932 1.08924348 1.08924348 1.08924348 108.12930637 110.16192385 110.16192385 110.16192385  60.00000000 180.00000000 300.00000000 -115.575685301126    14
1.12077677 0.96013932 1.08924348 1.08924348 1.08924348 108.12930637 110.16192385 110.16192385 110.16192385  60.00000000 180.00000000 300.00000000 -115.502947000212    15
1.82077677 0.96013932 1.08924348 1.08924348 1.08924348 108.12930637 110.16192385 110.16192385 110.16192385  60.00000000 180.00000000 300.00000000 -115.558355188479    16
1.92077677 0.96013932 1.08924348 1.08924348 1.08924348 108.12930637 110.16192385 110.16192385 110.16192385  60.00000000 180.00000000 300.00000000 -115.541074700682    17
2.02077677 0.96013932 1.08924348 1.08924348 1.08924348 108.12930637 110.16192385 110.16192385 110.16192385  60.00000000 180.00000000 300.00000000 -115.524690361112    18
2.12077677 0.96013932 1.08924348 1.08924348 1.08924348 108.12930637 110.16192385 110.16192385 110.16192385  60.00000000 180.00000000 300.00000000 -115.509720773230    19
end