***, Methanol Ground State Energy with CCSD(T) and aug-cc-pVTZ
memory,500,m;

symmetry,nosym
geometry={angstrom
c 
o , 1, rco 
h , 2, roh, 1, acoh
h1, 1, rch1, 2, aoch1  3  ahh1
h2, 1, rch2, 2, aoch2, 3, ahh2
h3, 1, rch3, 2, aoch3, 3, ahh3
}

rco= 1.42350566
roh= 0.95570290
rch1= 1.09101854
rch2= 1.09071271
rch3= 1.09071271
acoh= 108.79667944
aoch1= 112.02817953
aoch2= 109.48013874
aoch3= 109.48013874
ahh1=0.00
ahh2=120.37911985
ahh3=239.62088015
 

basis=aug-cc-pVQZ

hf
ccsd

{OPTG,method=qsdpath,idir=1,numhess=5,hesscentral,saveact=CH3OH_path_VTZ
END}


--- End of Script ---