***, Methanol Ground State Energy with CCSD and aug-cc-pVTZ
memory,500,m;

geometry={angstrom
c 
o , 1, rco 
h , 2, roh, 1, acoh
h1, 1, rch1, 2, aoch1  3  ahh1
h2, 1, rch2, 2, aoch2, 3, ahh2
h3, 1, rch3, 2, aoch3, 3, ahh3
}

rco=     1.42350566
roh=     0.95570290
rch1=    1.09071271
rch2=    1.09101854
rch3=    1.09101854
acoh=  108.79667944
aoch1= 109.48013874
aoch2= 112.02817953
aoch3= 112.02817953
ahh1=  180.00000000
ahh2=  300.00000000
ahh3=  420.00000000


basis=aug-cc-pVTZ

hf
ccsd
runccsd = {hf;ccsd}

{OPTG,procedure=runccsd,savexyz=CH3OH_maxima_mp2.xyz
active,rco,roh,rch1,rch2,rch3,acoh,aoch1,aoch2,aoch3,ahh2,ahh3;
END}

xxx = "mmm"
tau = (ahh1 + ahh2 + ahh3)/3
table,xxx,rco,roh,rch1,rch2,rch3,acoh,aoch1,aoch2,aoch3,ahh1,ahh2,ahh3,tau
DIGITS, 0, 8, 8, 8, 8, 8, 8, 8, 8, 8,  8,  8,  8, 8


--- End of Script ---